149
1475
107
0 23
0 67
0 68
0 76
1 3
1 6
1 7
1 14
1 15
1 16
1 27
1 50
1 69
1 77
1 79
1 99
1 113
1 114
1 129
1 139
2 4
2 5
2 8
2 11
2 13
2 18
2 20
2 25
2 26
2 28
2 32
2 36
2 45
2 49
2 58
2 78
2 88
2 91
2 92
2 96
2 98
2 115
2 125
2 126
2 128
2 137
2 140
3 6
3 7
3 14
3 15
3 16
3 27
3 45
3 50
3 61
3 62
3 65
3 70
3 71
3 72
3 73
3 75
3 78
3 80
3 110
3 125
4 5
4 8
4 11
4 13
4 18
4 20
4 25
4 26
4 28
4 32
4 46
4 47
4 52
4 53
4 58
4 90
4 139
4 142
4 145
4 147
4 148
5 8
5 11
5 13
5 18
5 19
5 20
5 25
5 26
5 28
5 32
5 39
5 46
5 47
5 52
5 53
5 58
5 84
5 90
5 105
5 116
5 119
5 141
5 143
6 7
6 14
6 15
6 16
6 27
6 45
6 50
6 54
6 61
6 62
6 65
6 70
6 71
6 72
6 73
6 83
6 85
6 93
6 104
6 148
7 14
7 15
7 16
7 27
7 45
7 50
7 54
7 61
7 62
7 65
7 70
7 71
7 72
7 73
7 83
7 85
7 93
7 104
7 122
7 123
7 124
7 126
7 127
7 128
7 131
7 148
8 11
8 13
8 18
8 20
8 25
8 26
8 28
8 32
8 46
8 47
8 52
8 53
8 58
8 90
9 14
9 15
9 16
9 30
9 32
9 107
9 134
10 12
10 17
10 19
10 21
10 22
10 23
10 24
10 29
10 68
11 13
11 18
11 20
11 25
11 26
11 28
11 33
11 49
11 57
11 78
11 88
11 91
11 92
11 94
11 96
11 109
11 125
11 126
11 128
11 137
11 140
12 17
12 19
12 21
12 22
12 23
12 24
12 29
12 34
12 35
12 36
12 37
12 38
12 68
12 95
12 98
12 102
12 112
12 115
13 18
13 20
13 25
13 26
13 28
13 33
13 57
13 94
13 109
14 15
14 16
14 27
14 30
14 32
14 50
14 69
14 77
14 79
14 99
14 107
14 113
14 114
14 129
14 134
14 139
15 16
15 27
15 30
15 32
15 50
15 107
15 134
16 27
16 30
16 32
16 45
16 50
16 61
16 62
16 65
16 70
16 71
16 72
16 73
16 107
16 134
17 19
17 21
17 22
17 23
17 24
17 29
17 39
17 44
17 53
17 63
17 64
17 68
17 99
17 100
17 103
17 104
17 106
17 110
17 113
17 114
17 117
17 118
17 139
17 142
17 146
17 148
18 20
18 25
18 26
18 28
18 33
18 37
18 38
18 43
18 51
18 54
18 57
18 94
18 101
18 102
18 109
19 20
19 21
19 22
19 23
19 24
19 28
19 29
19 39
19 44
19 47
19 63
19 64
19 68
19 84
19 96
19 97
19 101
19 105
19 116
19 119
19 141
19 143
20 25
20 26
20 28
20 33
20 39
20 46
20 47
20 52
20 53
20 57
20 84
20 90
20 94
20 105
20 109
20 116
20 119
20 141
20 143
21 22
21 23
21 24
21 29
21 39
21 44
21 63
21 64
21 68
21 96
21 97
21 101
21 105
22 23
22 24
22 29
22 39
22 44
22 53
22 63
22 64
22 68
22 84
22 99
22 100
22 103
22 104
22 116
22 119
22 120
22 146
23 24
23 27
23 29
23 48
23 50
23 67
23 68
23 76
23 86
23 133
24 29
24 41
24 68
24 75
24 87
24 122
24 135
25 26
25 28
26 28
26 37
26 38
26 43
26 51
26 54
26 101
26 102
27 45
27 48
27 50
27 61
27 62
27 65
27 70
27 71
27 72
27 73
27 75
27 78
27 80
27 86
27 110
27 125
27 133
28 39
28 46
28 47
28 52
28 53
28 84
28 90
28 105
28 116
28 119
28 141
28 143
29 39
29 41
29 44
29 63
29 64
29 68
29 75
29 87
29 96
29 97
29 101
29 105
29 122
29 135
30 31
30 32
30 33
30 40
30 56
30 57
30 88
30 94
30 107
30 108
30 109
30 123
30 134
31 32
31 33
31 40
31 56
31 57
31 88
31 94
31 107
31 108
31 109
31 123
31 134
32 33
32 40
32 56
32 57
32 58
32 88
32 94
32 107
32 108
32 109
32 123
32 134
33 40
33 56
33 57
33 88
33 94
33 107
33 108
33 109
33 123
33 134
34 35
34 36
34 37
34 38
34 68
34 95
34 98
34 102
34 112
34 115
35 36
35 37
35 38
35 41
35 43
35 46
35 47
35 68
35 79
35 95
35 98
35 102
35 112
35 115
36 37
36 38
36 45
36 49
36 68
36 92
36 95
36 98
36 102
36 112
36 115
36 128
36 140
37 38
37 41
37 43
37 46
37 47
37 51
37 54
37 68
37 79
37 93
37 95
37 98
37 101
37 102
37 112
37 115
38 41
38 43
38 46
38 47
38 51
38 54
38 68
38 79
38 95
38 98
38 101
38 102
38 112
38 115
39 44
39 47
39 63
39 64
39 84
39 96
39 97
39 101
39 105
39 116
39 119
39 141
39 143
40 42
40 44
40 56
40 57
40 59
40 63
40 64
40 88
40 91
40 94
40 107
40 108
40 109
40 123
40 134
41 43
41 46
41 47
41 48
41 50
41 75
41 79
41 86
41 87
41 89
41 102
41 110
41 122
41 133
41 135
41 136
42 44
42 56
42 57
42 59
42 63
42 64
42 88
42 91
43 46
43 47
43 51
43 54
43 79
43 93
43 101
43 102
44 56
44 57
44 59
44 63
44 64
44 88
44 91
45 49
45 55
45 58
45 61
45 62
45 65
45 70
45 71
45 72
45 73
45 82
45 84
45 92
45 98
45 115
45 128
45 132
45 140
46 47
46 52
46 53
46 79
46 90
46 102
46 139
46 142
46 145
46 147
46 148
47 52
47 53
47 79
47 84
47 90
47 102
47 105
47 116
47 119
47 141
47 143
48 50
48 75
48 86
48 87
48 89
48 110
48 122
48 133
48 135
48 136
49 55
49 58
49 61
49 62
49 65
49 78
49 88
49 91
49 92
49 96
49 98
49 115
49 125
49 126
49 128
49 137
49 140
50 75
50 86
50 87
50 89
50 110
50 122
50 133
50 135
50 136
51 54
51 101
51 102
52 53
52 90
52 139
52 142
52 145
52 147
52 148
53 64
53 83
53 90
53 99
53 100
53 103
53 104
53 123
53 124
53 131
53 134
53 144
53 146
54 83
54 85
54 93
54 101
54 102
54 104
54 148
55 58
55 61
55 62
55 65
55 66
55 67
55 68
55 74
55 76
55 106
55 121
56 57
56 59
56 60
56 63
56 64
56 69
56 77
56 79
56 88
56 91
56 94
56 107
56 108
56 109
56 113
56 123
56 134
57 59
57 60
57 63
57 64
57 69
57 77
57 79
57 88
57 91
57 94
57 107
57 108
57 109
57 113
57 123
57 134
58 61
58 62
58 65
58 66
58 67
58 68
58 74
58 76
58 106
58 121
59 60
59 63
59 64
59 69
59 77
59 79
59 88
59 91
59 113
60 63
60 64
60 69
60 77
60 79
60 113
61 62
61 65
61 70
61 71
61 72
61 73
62 65
62 70
62 71
62 72
62 73
62 82
62 84
62 107
62 108
62 109
62 111
62 112
62 115
62 132
62 145
63 64
63 69
63 77
63 79
63 88
63 91
63 113
64 69
64 77
64 79
64 88
64 91
64 99
64 100
64 103
64 104
64 113
64 146
65 70
65 71
65 72
65 73
65 82
65 84
65 132
66 67
66 68
66 74
66 76
66 106
66 121
67 68
67 74
67 76
67 106
67 121
68 74
68 76
68 95
68 98
68 102
68 106
68 112
68 115
68 121
69 77
69 79
69 99
69 113
69 114
69 129
69 139
70 71
70 72
70 73
71 72
71 73
71 75
71 78
71 80
71 110
71 125
72 73
72 82
72 84
72 107
72 108
72 109
72 111
72 112
72 115
72 132
72 145
73 82
73 84
73 132
74 76
74 77
74 79
74 81
74 99
74 106
74 113
74 114
74 116
74 117
74 121
74 129
74 139
74 141
75 78
75 80
75 86
75 87
75 88
75 89
75 90
75 91
75 92
75 110
75 122
75 125
75 133
75 135
75 136
76 77
76 79
76 81
76 99
76 106
76 113
76 114
76 116
76 117
76 121
76 129
76 139
76 141
77 79
77 81
77 99
77 106
77 113
77 114
77 116
77 117
77 121
77 129
77 139
77 141
78 80
78 86
78 87
78 88
78 89
78 90
78 91
78 92
78 96
78 110
78 125
78 126
78 128
78 137
78 140
79 81
79 99
79 102
79 106
79 113
79 114
79 116
79 117
79 121
79 129
79 139
79 141
80 86
80 87
80 88
80 89
80 90
80 91
80 92
80 110
80 125
81 99
81 106
81 113
81 114
81 116
81 117
81 121
81 129
81 139
81 141
82 84
82 107
82 108
82 109
82 111
82 112
82 115
82 132
82 145
83 85
83 90
83 93
83 104
83 122
83 123
83 124
83 126
83 127
83 128
83 131
83 134
83 144
83 146
83 148
84 105
84 116
84 119
84 120
84 132
84 141
84 143
85 93
85 104
85 148
86 87
86 88
86 89
86 90
86 91
86 92
86 110
86 122
86 125
86 133
86 135
86 136
87 88
87 89
87 90
87 91
87 92
87 110
87 122
87 125
87 133
87 135
87 136
88 89
88 90
88 91
88 92
88 94
88 96
88 107
88 108
88 109
88 110
88 123
88 125
88 126
88 128
88 134
88 137
88 140
89 90
89 91
89 92
89 110
89 122
89 125
89 133
89 135
89 136
90 91
90 92
90 94
90 95
90 98
90 102
90 107
90 108
90 109
90 110
90 111
90 112
90 115
90 123
90 124
90 125
90 131
90 134
90 144
90 146
91 92
91 96
91 110
91 125
91 126
91 128
91 137
91 140
92 96
92 98
92 110
92 115
92 125
92 126
92 128
92 137
92 140
93 104
93 148
94 95
94 98
94 102
94 107
94 108
94 109
94 111
94 112
94 115
94 123
94 124
94 134
95 98
95 102
95 107
95 108
95 109
95 111
95 112
95 115
95 123
95 124
95 134
96 97
96 101
96 105
96 122
96 125
96 126
96 127
96 128
96 133
96 135
96 136
96 137
96 138
96 140
97 101
97 105
97 122
97 126
97 127
97 128
97 133
97 135
97 136
97 137
97 138
97 140
98 102
98 107
98 108
98 109
98 111
98 112
98 115
98 123
98 124
98 128
98 134
98 140
99 100
99 103
99 104
99 106
99 110
99 113
99 114
99 116
99 117
99 118
99 121
99 129
99 139
99 141
99 142
99 146
99 148
100 103
100 104
100 106
100 110
100 113
100 114
100 117
100 118
100 139
100 142
100 146
100 148
101 102
101 105
101 122
101 126
101 127
101 128
101 133
101 135
101 136
101 137
101 138
101 140
102 107
102 108
102 109
102 111
102 112
102 115
102 123
102 124
102 134
103 104
103 146
104 106
104 110
104 113
104 114
104 117
104 118
104 139
104 142
104 146
104 148
105 116
105 119
105 141
105 143
106 110
106 113
106 114
106 116
106 117
106 118
106 121
106 129
106 139
106 141
106 142
106 148
107 108
107 109
107 111
107 112
107 115
107 123
107 124
107 134
107 145
108 109
108 111
108 112
108 115
108 123
108 124
108 134
108 145
109 111
109 112
109 115
109 123
109 124
109 134
109 145
110 113
110 114
110 117
110 118
110 122
110 125
110 133
110 135
110 136
110 139
110 142
110 148
111 112
111 115
111 123
111 124
111 134
111 145
112 115
112 123
112 124
112 134
112 145
113 114
113 116
113 117
113 118
113 121
113 129
113 139
113 141
113 142
113 148
114 116
114 117
114 118
114 121
114 129
114 139
114 141
114 142
114 148
115 123
115 124
115 128
115 134
115 140
115 145
116 117
116 119
116 120
116 121
116 125
116 129
116 130
116 132
116 139
116 141
116 143
117 118
117 121
117 129
117 139
117 141
117 142
117 148
118 139
118 142
118 148
119 120
119 141
119 143
121 125
121 129
121 130
121 132
121 139
121 141
121 143
122 123
122 124
122 126
122 127
122 128
122 131
122 133
122 135
122 136
122 137
122 138
122 140
123 124
123 126
123 127
123 128
123 131
123 134
123 144
123 146
124 126
124 127
124 128
124 131
124 134
124 144
124 146
125 126
125 128
125 129
125 130
125 132
125 137
125 140
125 141
125 143
126 127
126 128
126 131
126 133
126 135
126 136
126 137
126 138
126 140
127 128
127 131
127 133
127 135
127 136
127 137
127 138
127 140
128 131
128 133
128 135
128 136
128 137
128 138
128 140
129 130
129 132
129 139
129 141
129 143
130 132
130 141
130 143
131 134
131 144
131 146
132 141
132 143
133 135
133 136
133 137
133 138
133 140
134 144
134 146
135 136
135 137
135 138
135 140
136 137
136 138
136 140
137 138
137 140
138 140
139 141
139 142
139 145
139 147
139 148
141 143
142 145
142 147
142 148
144 146
145 147
145 148
147 148
0
1 2
3
4
5 6
7 8
9
10
11 12
13
14
15
16 17
18
19 20
21 22
23 24
25
26 27
28
29
30
31
32 33
34
35
36
37
38
39
40 41
42
43
44
45 46
47
48
49 50
51
52 53
54
55
56
57 58
59
60
61
62 63
64 65
66
67
68 69
70
71
72
73
74
75 76
77 78
79 80
81
82 83
84 85
86
87 88
89
90 91
92
93
94
95 96
97
98 99
100
101 102
103
104 105
106 107
108
109 110
111
112 113
114 115
116 117
118
119
120
121
122 123
124
125 126
127
128 129
130
131
132
133 134
135
136
137
138
139 140
141
142 143
144 145
146 147
148
